50
    1   510   500
    2   428   418
    3   786   776
    4   661   651
    5   536   526
    6   678   668
    7    89    79
    8   754   744
    9   874   864
   10   656   646
   11   528   518
   12   175   165
   13   811   801
   14   976   966
   15   690   680
   16   962   952
   17   203   193
   18   357   347
   19   776   766
   20   313   303
   21   282   272
   22   781   771
   23   857   847
   24   809   799
   25   170   160
   26   769   759
   27   642   632
   28   880   870
   29   643   633
   30   941   931
   31   979   969
   32   954   944
   33   403   393
   34   692   682
   35   222   212
   36   184   174
   37   711   701
   38   233   223
   39   484   474
   40   568   558
   41   867   857
   42   360   350
   43   430   420
   44    21    11
   45   506   496
   46   602   592
   47   485   475
   48   798   788
   49    11     1
   50   511   501
9352
